[on. 05. april 13:38:57 +0200 2023]  ./input/alternate_g_np_100/100-1-3.gcc
Set parameter Username
Academic license - for non-commercial use only - expires 2024-03-28
Set parameter TimeLimit to value 1800
Set parameter PreCrush to value 1
Set parameter LazyConstraints to value 1
Gurobi Optimizer version 10.0.1 build v10.0.1rc0 (linux64)

CPU model: AMD Ryzen 9 5950X 16-Core Processor, instruction set [SSE2|AVX|AVX2]
Thread count: 16 physical cores, 32 logical processors, using up to 32 threads

Optimize a model with 106 rows, 700 columns and 1900 nonzeros
Model fingerprint: 0x9d84515c
Variable types: 0 continuous, 700 integer (700 binary)
Coefficient statistics:
  Matrix range     [1e+00, 1e+00]
  Objective range  [2e+00, 1e+02]
  Bounds range     [1e+00, 1e+00]
  RHS range        [1e+00, 1e+00]
Presolve added 5 rows and 5 columns
Presolve time: 0.00s
Presolved: 111 rows, 705 columns, 1415 nonzeros
Variable types: 0 continuous, 705 integer (700 binary)

Root relaxation: objective 4.891000e+03, 1 iterations, 0.00 seconds (0.00 work units)

    Nodes    |    Current Node    |     Objective Bounds      |     Work
 Expl Unexpl |  Obj  Depth IntInf | Incumbent    BestBd   Gap | It/Node Time

     0     0 4891.00000    0    -          - 4891.00000      -     -    0s
     0     0 4891.00000    0    -          - 4891.00000      -     -    0s
     0     0 4891.00000    0    -          - 4891.00000      -     -    0s
     0     0 4891.00000    0    -          - 4891.00000      -     -    0s
     0     0 4891.00000    0    -          - 4891.00000      -     -    0s
     0     0 4891.00000    0    8          - 4891.00000      -     -    0s
     0     0 4891.00000    0   14          - 4891.00000      -     -    0s
     0     0 3810.00000    0    -          - 3810.00000      -     -    0s
     0     0 3810.00000    0   17          - 3810.00000      -     -    0s
     0     0 3810.00000    0   20          - 3810.00000      -     -    0s
     0     0 3804.00000    0    4          - 3804.00000      -     -    0s
     0     2 3781.33333    0   29          - 3781.33333      -     -    0s
  3294  3048 2756.74339   19  338          - 2756.74339      -  47.6    6s
* 4340  3587              35    2390.0000000 2756.00000  15.3%  86.2    8s
  5019  3623 2659.66667   33   20 2390.00000 2756.00000  15.3%  88.5   13s
  5114  3624 2621.18048   34  129 2390.00000 2756.00000  15.3%  90.0   16s
H 5151  3466                    2409.0000000 2756.00000  14.4%  91.0   16s
  9058  4343 2498.36847   64  169 2409.00000 2718.41399  12.8%   105   20s
 16089  7077 2514.20805   50  151 2409.00000 2659.02332  10.4%   108   25s
H21395  7276                    2456.0000000 2629.00000  7.04%   108   28s
 23039  7615 2476.99163   39  175 2456.00000 2624.46435  6.86%   107   31s
H23040  4537                    2511.0000000 2624.46435  4.52%   107   31s
H26273  3379                    2533.0000000 2604.92609  2.84%   108   34s
 27847  2664 2537.63056   40  135 2533.00000 2592.79270  2.36%   107   35s

Cutting planes:
  User: 451
  Gomory: 1
  Lazy constraints: 175

Explored 32303 nodes (3268212 simplex iterations) in 36.11 seconds (65.16 work units)
Thread count was 32 (of 32 available processors)

Solution count 5: 2533 2511 2456 ... 2390

Optimal solution found (tolerance 1.00e-04)
Best objective 2.533000000000e+03, best bound 2.533000000000e+03, gap 0.0000%

User-callback calls 73050, time in user-callback 4.90 sec
Minimal separator inequalities added: 21608
Indegree inequalities added: 139894
Passed solution check
[on. 05. april 13:39:33 +0200 2023]  done

